NAME : kroE100-C-5-1-a__bsl__28254.tour
COMMENT : Length = 28254.000
COMMENT : Generated by compare_sota_instances.py for bsl
TYPE : TOUR
DIMENSION : 100
TOUR_SECTION
72
81
89
71
61
14
52
44
1
35
40
8
25
54
99
45
17
84
49
20
15
56
23
28
36
95
59
98
32
12
76
21
7
74
83
73
16
79
26
46
3
47
69
51
88
63
58
62
64
50
60
10
80
97
65
31
57
9
96
85
77
37
34
53
78
100
29
24
18
94
19
22
33
48
90
42
5
30
66
13
75
41
87
27
67
92
82
2
11
4
70
6
55
91
93
39
43
86
38
68
-1
EOF
